
Gurobi 10.0.1 (linux64) logging started Fri 11 Aug 2023 04:51:38 PM CDT

Set parameter LogFile to value "/home/dlcole3/graph_abstraction/plasmoexamples/SHP_serial/SHP_reserve_requirements/gurobi_logs/logfile9.log"
Set parameter NodefileStart to value 0.0005
Set parameter TimeLimit to value 36000
Gurobi Optimizer version 10.0.1 build v10.0.1rc0 (linux64)

CPU model: Intel(R) Xeon(R) CPU E5-2698 v4 @ 2.20GHz, instruction set [SSE2|AVX|AVX2]
Thread count: 40 physical cores, 80 logical processors, using up to 8 threads


Warning: excessive time spent in model updates.
Consider calling update less frequently.

Optimize a model with 1105538 rows, 641709 columns and 4644125 nonzeros
Model fingerprint: 0xc656b2fd
Variable types: 599982 continuous, 41727 integer (41727 binary)
Coefficient statistics:
  Matrix range     [5e-02, 2e+04]
  Objective range  [2e-01, 8e+04]
  Bounds range     [5e-02, 2e+04]
  RHS range        [2e-19, 7e+03]
Presolve removed 263153 rows and 118231 columns (presolve time = 5s) ...
Presolve removed 276869 rows and 124830 columns (presolve time = 10s) ...
Presolve removed 278965 rows and 127925 columns (presolve time = 15s) ...
Presolve removed 284780 rows and 132494 columns (presolve time = 20s) ...
Presolve removed 291645 rows and 132675 columns (presolve time = 25s) ...
Presolve removed 292345 rows and 133391 columns (presolve time = 30s) ...
Presolve removed 292385 rows and 133441 columns (presolve time = 35s) ...
Presolve removed 292385 rows and 133441 columns (presolve time = 40s) ...
Sparsify removed 206668 nonzeros (5%)
Presolve removed 292685 rows and 192448 columns (presolve time = 45s) ...
Presolve removed 292685 rows and 132464 columns
Presolve time: 45.70s
Presolved: 812853 rows, 509245 columns, 3963881 nonzeros
Variable types: 475611 continuous, 33634 integer (33577 binary)

Deterministic concurrent LP optimizer: primal simplex, dual simplex, and barrier
Showing barrier log only...

Root barrier log...

Elapsed ordering time = 5s
Elapsed ordering time = 17s
Elapsed ordering time = 20s
Elapsed ordering time = 25s
Elapsed ordering time = 30s
Elapsed ordering time = 35s
Elapsed ordering time = 40s
Elapsed ordering time = 44s
Elapsed ordering time = 45s
Elapsed ordering time = 50s
Elapsed ordering time = 55s
Elapsed ordering time = 57s
Elapsed ordering time = 60s
Elapsed ordering time = 65s
Ordering time: 69.21s

Barrier statistics:
 Dense cols : 217
 AA' NZ     : 2.369e+07
 Factor NZ  : 3.604e+08 (roughly 3.4 GB of memory)
 Factor Ops : 1.733e+12 (roughly 15 seconds per iteration)
 Threads    : 5

                  Objective                Residual
Iter       Primal          Dual         Primal    Dual     Compl     Time
   0  -2.14548776e+11 -1.80000471e+13  1.25e+04 1.05e+04  1.17e+08   138s
   1  -1.67911982e+11 -1.41905107e+13  1.02e+04 2.19e+07  8.67e+07   147s
   2  -1.20144610e+11 -1.20813448e+13  7.38e+03 1.33e+07  6.06e+07   161s
   3  -7.02375239e+10 -9.00255625e+12  4.55e+03 5.83e+06  3.67e+07   175s
   4  -1.86084218e+10 -3.40094925e+12  1.38e+03 4.53e+00  1.08e+07   190s
   5  -5.49294194e+09 -1.44676015e+12  5.86e+02 5.48e-01  4.16e+06   205s
   6   2.83791938e+09 -7.21588991e+11  1.18e+02 1.05e-01  1.00e+06   221s
   7   4.19465225e+09 -3.21207368e+11  4.19e+01 1.82e-02  3.37e+05   237s
   8   4.21454986e+09 -1.46480939e+11  1.40e+01 9.79e-03  1.21e+05   252s
   9   3.33847097e+09 -4.76449690e+10  4.16e+00 2.73e-03  3.52e+04   269s
  10   1.70146186e+09 -2.07417935e+10  1.83e+00 2.14e-03  1.45e+04   285s
  11   3.55802022e+08 -3.24769278e+09  2.35e-01 1.32e-03  2.18e+03   304s
  12   7.97909137e+07 -4.54047097e+08  5.24e-04 1.90e-04  3.14e+02   320s
  13   5.88377075e+07 -7.32015958e+07  7.56e-05 3.55e-04  7.76e+01   339s
  14   4.65511161e+07 -9.22244103e+06  1.29e-05 7.71e-04  3.28e+01   360s
  15   4.21893893e+07  1.43196191e+07  4.73e-06 3.82e-04  1.64e+01   377s
  16   3.81722782e+07  3.08133345e+07  1.26e-06 9.08e-05  4.33e+00   396s
  17   3.73306783e+07  3.33481484e+07  1.23e-06 4.16e-05  2.34e+00   413s
  18   3.68422766e+07  3.43521807e+07  9.34e-07 2.41e-05  1.46e+00   427s
  19   3.63466527e+07  3.49263506e+07  5.85e-07 1.28e-05  8.35e-01   444s
  20   3.60770623e+07  3.52282619e+07  3.77e-07 7.01e-06  4.99e-01   461s
  21   3.59481951e+07  3.53701174e+07  2.81e-07 4.48e-06  3.40e-01   477s
  22   3.58721436e+07  3.54453375e+07  2.22e-07 3.16e-06  2.51e-01   493s
  23   3.57776860e+07  3.54892797e+07  1.54e-07 2.29e-06  1.70e-01   508s
  24   3.57344916e+07  3.55250928e+07  1.18e-07 1.59e-06  1.23e-01   523s
  25   3.56969916e+07  3.55487378e+07  8.75e-08 1.09e-06  8.72e-02   539s
  26   3.56805960e+07  3.55672921e+07  7.41e-08 7.45e-07  6.66e-02   559s
  27   3.56571282e+07  3.55739870e+07  1.12e-07 6.11e-07  4.89e-02   581s
  28   3.56411939e+07  3.55858495e+07  8.83e-08 3.87e-07  3.25e-02   601s
  29   3.56297968e+07  3.55880406e+07  2.98e-07 3.44e-07  2.46e-02   624s
  30   3.56226520e+07  3.55959568e+07  6.15e-07 1.91e-07  1.57e-02   646s
  31   3.56152342e+07  3.55987374e+07  5.04e-07 1.37e-07  9.70e-03   667s
  32   3.56128039e+07  3.56011001e+07  8.32e-07 9.16e-08  6.88e-03   688s
  33   3.56114640e+07  3.56023137e+07  7.61e-07 6.78e-08  5.38e-03   709s
  34   3.56109410e+07  3.56034549e+07  7.12e-07 4.53e-08  4.40e-03   729s
  35   3.56096135e+07  3.56037314e+07  6.39e-07 3.99e-08  3.46e-03   750s
  36   3.56086113e+07  3.56038857e+07  5.86e-07 3.68e-08  2.78e-03   772s
  37   3.56077893e+07  3.56044048e+07  4.40e-07 2.62e-08  1.99e-03   794s
  38   3.56072745e+07  3.56050159e+07  4.35e-07 2.23e-08  1.33e-03   814s
  39   3.56067529e+07  3.56054400e+07  2.86e-07 1.94e-08  7.72e-04   834s
  40   3.56065093e+07  3.56055767e+07  2.67e-07 1.91e-08  5.48e-04   855s
  41   3.56061948e+07  3.56056766e+07  1.55e-07 4.92e-08  3.05e-04   872s
  42   3.56060449e+07  3.56056954e+07  1.15e-07 4.36e-08  2.06e-04   888s
  43   3.56059972e+07  3.56057330e+07  9.76e-08 7.72e-09  1.55e-04   906s
  44   3.56059458e+07  3.56057445e+07  7.86e-08 2.40e-08  1.18e-04   923s
  45   3.56059170e+07  3.56057467e+07  6.74e-08 4.09e-08  1.00e-04   940s
  46   3.56058788e+07  3.56057512e+07  9.77e-08 1.04e-08  7.51e-05   959s
  47   3.56058512e+07  3.56057598e+07  8.62e-08 1.34e-08  5.37e-05   980s
  48   3.56058302e+07  3.56057622e+07  7.13e-08 3.57e-08  4.00e-05  1001s

Barrier solved model in 48 iterations and 1000.69 seconds (979.35 work units)
Optimal objective 3.56058302e+07


Root crossover log...

  382107 DPushes remaining with DInf 7.9624541e-02              1002s
  159904 DPushes remaining with DInf 4.6127859e+02              1005s
  107964 DPushes remaining with DInf 0.0000000e+00              1011s
   89633 DPushes remaining with DInf 0.0000000e+00              1016s
   72870 DPushes remaining with DInf 0.0000000e+00              1021s
   61692 DPushes remaining with DInf 0.0000000e+00              1026s
   52500 DPushes remaining with DInf 0.0000000e+00              1030s
   43664 DPushes remaining with DInf 0.0000000e+00              1036s
   38746 DPushes remaining with DInf 0.0000000e+00              1040s
   34596 DPushes remaining with DInf 0.0000000e+00              1045s
   32576 DPushes remaining with DInf 0.0000000e+00              1050s
   30457 DPushes remaining with DInf 0.0000000e+00              1056s
   27144 DPushes remaining with DInf 0.0000000e+00              1061s
   24532 DPushes remaining with DInf 0.0000000e+00              1065s
   21707 DPushes remaining with DInf 0.0000000e+00              1071s
   18590 DPushes remaining with DInf 0.0000000e+00              1075s
   14897 DPushes remaining with DInf 0.0000000e+00              1081s
   12624 DPushes remaining with DInf 0.0000000e+00              1085s
    8623 DPushes remaining with DInf 0.0000000e+00              1090s
    6724 DPushes remaining with DInf 0.0000000e+00              1096s
    5810 DPushes remaining with DInf 0.0000000e+00              1100s
    3387 DPushes remaining with DInf 0.0000000e+00              1106s
    2008 DPushes remaining with DInf 0.0000000e+00              1111s
     603 DPushes remaining with DInf 0.0000000e+00              1116s
       0 DPushes remaining with DInf 0.0000000e+00              1118s

  261685 PPushes remaining with PInf 3.2166207e-01              1118s
   74219 PPushes remaining with PInf 5.4604154e-01              1125s
   30975 PPushes remaining with PInf 5.2152732e-01              1127s
   15715 PPushes remaining with PInf 4.5669121e-01              1131s
   10085 PPushes remaining with PInf 4.2098376e-01              1135s
    3191 PPushes remaining with PInf 3.4117182e-01              1141s
       3 PPushes remaining with PInf 2.8996369e+00              1145s
       0 PPushes remaining with PInf 2.9267101e-03              1146s

  Push phase complete: Pinf 2.9267101e-03, Dinf 6.0481519e+07   1146s


Root simplex log...

Iteration    Objective       Primal Inf.    Dual Inf.      Time
  430385    3.5605774e+07   0.000000e+00   6.048152e+07   1147s
  430842    3.5605774e+07   0.000000e+00   3.744398e+04   1151s
  431756    3.5605773e+07   0.000000e+00   5.471114e+03   1156s
  432670    3.5605773e+07   0.000000e+00   5.692396e+01   1160s
  432900    3.5605773e+07   0.000000e+00   0.000000e+00   1164s
  432900    3.5605773e+07   0.000000e+00   0.000000e+00   1166s
Waiting for other threads to finish...        1233s
Waiting for other threads to finish...        1299s
Waiting for other threads to finish...        1367s
Concurrent spin time: 238.38s (can be avoided by choosing Method=3)

Solved with barrier

Root relaxation: objective 3.560577e+07, 432900 iterations, 1354.87 seconds (1138.84 work units)

    Nodes    |    Current Node    |     Objective Bounds      |     Work
 Expl Unexpl |  Obj  Depth IntInf | Incumbent    BestBd   Gap | It/Node Time

     0     0 3.5606e+07    0  598          - 3.5606e+07      -     - 1428s
     0     0 3.5611e+07    0  624          - 3.5611e+07      -     - 1551s
     0     0 3.5611e+07    0  619          - 3.5611e+07      -     - 1553s
     0     0 3.5612e+07    0  611          - 3.5612e+07      -     - 1610s
     0     0 3.5612e+07    0  631          - 3.5612e+07      -     - 1614s
     0     0 3.5612e+07    0  623          - 3.5612e+07      -     - 1616s
     0     0 3.5613e+07    0  665          - 3.5613e+07      -     - 1649s
     0     0 3.5613e+07    0  663          - 3.5613e+07      -     - 1651s
     0     0 3.5613e+07    0  670          - 3.5613e+07      -     - 1693s
     0     0 3.5613e+07    0  685          - 3.5613e+07      -     - 1696s
     0     0 3.5613e+07    0  685          - 3.5613e+07      -     - 1698s
     0     0 3.5613e+07    0  667          - 3.5613e+07      -     - 1741s
     0     0 3.5613e+07    0  700          - 3.5613e+07      -     - 1778s
     0     0 3.5613e+07    0  698          - 3.5613e+07      -     - 1781s
     0     0 3.5613e+07    0  687          - 3.5613e+07      -     - 1787s
     0     0 3.5614e+07    0  677          - 3.5614e+07      -     - 1830s
     0     0 3.5614e+07    0  675          - 3.5614e+07      -     - 1832s
     0     0 3.5614e+07    0  685          - 3.5614e+07      -     - 1880s
     0     0 3.5614e+07    0  688          - 3.5614e+07      -     - 1885s
     0     0 3.5614e+07    0  703          - 3.5614e+07      -     - 1912s
     0     0 3.5614e+07    0  714          - 3.5614e+07      -     - 1953s
     0     0 3.5614e+07    0  714          - 3.5614e+07      -     - 1957s
     0     0 3.5614e+07    0  697          - 3.5614e+07      -     - 1981s
     0     0 3.5614e+07    0  697          - 3.5614e+07      -     - 2009s
     0     0 3.5615e+07    0  685          - 3.5615e+07      -     - 2032s
     0     0 3.5615e+07    0  685          - 3.5615e+07      -     - 2037s
     0     0 3.5615e+07    0  685          - 3.5615e+07      -     - 2040s
     0     0 3.5615e+07    0  678          - 3.5615e+07      -     - 2064s
     0     0 3.5615e+07    0  673          - 3.5615e+07      -     - 2066s
     0     0 3.5615e+07    0  673          - 3.5615e+07      -     - 2086s
     0     0 3.5615e+07    0  649          - 3.5615e+07      -     - 2108s
     0     0 3.5615e+07    0  649          - 3.5615e+07      -     - 2115s
     0     0 3.5615e+07    0  642          - 3.5615e+07      -     - 2136s
     0     0 3.5615e+07    0  642          - 3.5615e+07      -     - 2146s
     0     0 3.5616e+07    0  591          - 3.5616e+07      -     - 2168s
     0     0 3.5616e+07    0  591          - 3.5616e+07      -     - 2187s
     0     0 3.5616e+07    0  606          - 3.5616e+07      -     - 2206s
     0     0 3.5616e+07    0  606          - 3.5616e+07      -     - 2218s
     0     0 3.5616e+07    0  590          - 3.5616e+07      -     - 2236s
     0     0 3.5616e+07    0  590          - 3.5616e+07      -     - 2240s
     0     0 3.5616e+07    0  587          - 3.5616e+07      -     - 2257s
     0     0 3.5616e+07    0  587          - 3.5616e+07      -     - 2261s
     0     0 3.5616e+07    0  553          - 3.5616e+07      -     - 2278s
     0     0 3.5616e+07    0  553          - 3.5616e+07      -     - 2308s
     0     0 3.5616e+07    0  494          - 3.5616e+07      -     - 2325s
     0     0 3.5616e+07    0  495          - 3.5616e+07      -     - 2338s
     0     0 3.5616e+07    0  475          - 3.5616e+07      -     - 2354s
H    0     0                    8.730263e+09 3.5616e+07   100%     - 2356s
     0     0 3.5616e+07    0  475 8.7303e+09 3.5616e+07   100%     - 2375s
     0     2 3.5616e+07    0  447 8.7303e+09 3.5616e+07   100%     - 2500s
     1     4 3.5636e+07    1  446 8.7303e+09 3.5616e+07   100% 11987 2572s
     3     8 3.5747e+07    2  472 8.7303e+09 3.5623e+07   100% 12349 2677s
     7    16 3.5749e+07    3  507 8.7303e+09 3.5682e+07   100% 12295 2787s
    15    24 3.5754e+07    4  513 8.7303e+09 3.5707e+07   100% 11116 2815s
    23    32 3.5752e+07    4  535 8.7303e+09 3.5707e+07   100%  8077 2945s
H   31    40                    8.105534e+09 3.5709e+07   100%  7089 3099s
H   34    40                    8.105330e+09 3.5709e+07   100%  6596 3099s
H   35    40                    8.105126e+09 3.5709e+07   100%  6417 3099s
H   36    40                    8.105107e+09 3.5709e+07   100%  6319 3099s
    39    46 3.5759e+07    5  522 8.1051e+09 3.5709e+07   100%  5958 3129s
    47    56 3.5759e+07    6  536 8.1051e+09 3.5713e+07   100%  5257 3169s
    60    67 3.5773e+07    7  482 8.1051e+09 3.5713e+07   100%  4410 3203s
    72    74 3.5764e+07    7  471 8.1051e+09 3.5713e+07   100%  3859 3243s
H   77    74                    1.396196e+08 3.5713e+07  74.4%  3650 3243s
    80    84 3.5766e+07    8  477 1.3962e+08 3.5713e+07  74.4%  3549 3282s
    91    96 3.5766e+07    8  478 1.3962e+08 3.5713e+07  74.4%  3237 3316s
   106   105 3.5766e+07    9  476 1.3962e+08 3.5713e+07  74.4%  2855 3363s
   116   114 3.5769e+07   10  459 1.3962e+08 3.5713e+07  74.4%  2720 3398s
   131   125 3.5766e+07   10  482 1.3962e+08 3.5713e+07  74.4%  2504 3437s
   146   131 3.5768e+07   12  504 1.3962e+08 3.5713e+07  74.4%  2307 3485s
   156   142 3.5768e+07   13  504 1.3962e+08 3.5713e+07  74.4%  2226 3521s
   172   148 3.5768e+07   15  505 1.3962e+08 3.5713e+07  74.4%  2084 3585s
   184   154 3.5768e+07   17  472 1.3962e+08 3.5713e+07  74.4%  2077 3627s
   199   163 3.5768e+07   18  467 1.3962e+08 3.5713e+07  74.4%  2000 3665s
   219   169 3.5769e+07   21  493 1.3962e+08 3.5713e+07  74.4%  1840 3732s
H  221   169                    1.396102e+08 3.5713e+07  74.4%  1825 3732s
H  223   169                    1.394323e+08 3.5713e+07  74.4%  1812 3732s
   233   182 3.5770e+07   23  480 1.3943e+08 3.5713e+07  74.4%  1745 3772s
   256   193 3.5770e+07   25  478 1.3943e+08 3.5713e+07  74.4%  1609 3817s
   286   201 3.5775e+07   28  415 1.3943e+08 3.5713e+07  74.4%  1468 3865s
   310   210 3.5772e+07   31  419 1.3943e+08 3.5713e+07  74.4%  1365 3911s
   338   225 3.5774e+07   35  372 1.3943e+08 3.5713e+07  74.4%  1268 3962s
H  369   234                    3.584944e+07 3.5713e+07  0.38%  1194 4652s
H  380   234                    3.580541e+07 3.5713e+07  0.26%  1177 4652s

Cutting planes:
  Gomory: 65
  Implied bound: 169
  MIR: 209
  StrongCG: 8
  Flow cover: 840
  RLT: 119
  Relax-and-lift: 44

Explored 383 nodes (893536 simplex iterations) in 4652.82 seconds (5642.90 work units)
Thread count was 8 (of 80 available processors)

Solution count 10: 3.58054e+07 3.58054e+07 3.58494e+07 ... 8.10553e+09

Optimal solution found (tolerance 5.00e-02)
Best objective 3.580540701602e+07, best bound 3.571275448195e+07, gap 0.2588%

User-callback calls 1002854, time in user-callback 4.07 sec
